241
Reference geometry stripped to element and Cartesian coordinates (angstrom)
H   2.4825613873  1.1742427057 -0.7978783751
H  -1.9184862410  0.4917929195  1.4755406699
H  -1.8125709457  0.8265031756 -0.9812858149
H  -1.5451357564 -0.5274896960  3.1336649866
H  -2.2824875278 -1.9736062314  4.7435081669
H  -2.4593855767 -2.8644091260  7.0776362024
H   1.3853962817  1.1718469309  7.8984672747
H   1.3574360144  0.6790009112  10.2943039927
H  -0.3176549942 -0.9278891281  11.2387943071
H  -1.7441557115 -2.3403293957  9.7600234818
H   2.3705793275  1.1375635638  1.6393000852
H   1.2441280121  0.9215070232 -2.8923729907
H  -7.5718094873 -7.8831738051  5.1979435563
H  -8.8391579501 -8.9605469225  5.8392545248
H  -9.1091093492 -8.0761059585  4.3695215204
H  -9.6475516666 -5.7956597321  3.8591823416
H  -9.5639904633 -4.5471997583  5.1446913900
H  -8.0620750528 -5.4198205219  4.7784813305
H  -4.4742261916 -0.9423786342  5.0491208238
H  -5.2195161744 -0.6720418332  6.5110928009
H  -4.7472870706 -2.4368746318  6.2335394048
H  -7.8827402338 -0.3385604490  3.6062171490
H  -6.1161812938 -0.1767939941  3.1720022300
H  -6.8505897613  0.5414692203  4.7866904830
H   0.5671033261  3.9861490453  3.9676213615
H  -0.0410447569  3.6303928324  5.5160683334
H   0.5777389139  5.2598454001  5.2329373162
H   2.1502769029  1.4615094841  5.5188686630
H   3.6786840583  2.0307402579  4.7819571862
H   2.1000468176  2.0239977414  3.8592065950
H   4.6988713572  5.4506119331  2.5868651940
H   2.9371376454  5.8467060910  2.5263855480
H   4.1105351748  6.3776151150  1.1497155499
H   3.1987241396  9.8131963241  3.3300970150
H   3.1245614722  9.0158888191  1.8195072285
H   2.0519989359  8.4023051730  3.1060580280
H  -6.6142643258 -3.2591405760 -4.1114224414
H  -6.6051620633 -2.4018750788 -2.4838905964
H  -7.1900268831 -4.1049510685 -2.7093375732
H  -8.6602008868 -3.2228141963 -1.0517464797
H  -8.8361528493 -1.4487723453 -1.3812570611
H  -10.2822765011 -2.4925841855 -1.5337975191
H  -1.4915545505  6.5312585070 -8.1966938889
H  -1.2661354136  7.6561822874 -6.6459315967
H  -1.2909754757  8.3029776034 -8.4158033943
H   2.0409237464  5.3054972482 -7.3090082125
H   0.7667307188  5.7375740659 -6.1388329429
H   0.3918390101  4.9936376370 -7.8653409761
H  -2.4489511323  5.5117233112 -2.8802898682
H  -3.4734913620  7.0150303303 -2.7411128415
H  -4.2389652890  5.3563520527 -2.6684493166
H  -5.7984016710  7.0825218589 -4.7881847416
H  -5.3772633782  6.1682955564 -6.2722814409
H  -5.7711618581  5.1920882707 -4.8756702072
H   5.0700824592 -5.3210730008 -5.5541347874
H   3.8548027656 -5.7953316817 -7.0507439857
H   5.6526207729 -5.8310039045 -7.1078294857
H   2.8709973126 -2.0965023449 -6.4640163731
H   2.4393509184 -3.7581082806 -6.0757484363
H   3.8070992643 -2.9250699718 -5.1680629723
H   6.2323598482  0.6649589560 -4.8919043480
H   5.6517903439  0.4912248391 -3.1945147805
H   4.9918781143 -0.5859532554 -4.4384938840
H   3.2440167503  3.4506863449 -3.8514206213
H   4.5494688829  2.6317680450 -2.8272654127
H   4.9154288251  3.2396595435 -4.4683389980
H   1.6379165512 -1.8338523996 -0.0339799316
H   2.8181144291 -2.7219516157 -1.0175175166
H   0.9385644406 -2.6353127607 -1.3340342711
H  -0.4433915963 -4.6311320234  1.5644561345
H  -0.2182576243 -2.8330914314  1.4209129214
H  -0.8444944530 -3.6126564955  0.0528753053
H  -6.2648356206 -6.2260367812 -6.4207797879
H  -6.1798163522 -6.2506246637 -8.2782313037
H  -4.8637456605 -6.8225173165 -7.2128529058
H  -7.0495115659 -3.3155746375 -7.9217717601
H  -7.3593715225 -4.2624813624 -6.4389467824
H  -6.3676173173 -2.7504934343 -6.3088507860
H  -9.4359415633  1.6481457967  1.2433399353
H  -9.3379659820  3.2935324345  1.4950281044
H  -10.3594421826  2.8140233641  0.1321184644
H  -7.9104724439  4.9624595008  0.0899210638
H  -7.4793360105  4.4635679110 -1.7147138607
H  -9.0942139292  4.4555488674 -1.0210263221
H  -1.8506126493 -9.2285035162  4.7028083252
H  -1.6263511076 -9.0645655647  2.8766199112
H  -0.6911963653 -8.0523809847  3.9406081400
H  -2.5759978239 -6.7659222977  5.7883883028
H  -4.2641079799 -6.2272798546  5.3265714237
H  -3.9980843267 -7.9839365697  5.6350706075
H   1.2212459746 -6.2600131945  7.7688723784
H   2.1837166943 -4.6684899908  7.5144299615
H   0.3682073764 -4.8312105876  7.3547681759
H   0.8694236300 -3.2084853274  5.3109998561
H   1.5630407500 -3.8380311554  3.7931878631
H   2.5999765544 -3.4945388803  5.3187666658
H  -9.9758029209 -6.9523191250 -2.2966204113
H  -11.0895947271 -7.2169363282 -3.6639261224
H  -10.9599350492 -8.5299182748 -2.3653952233
H  -10.7751455455 -10.0285343725 -4.0071718075
H  -10.5113563366 -9.4185175517 -5.7247167602
H  -9.4875720867 -10.6119388410 -5.0550320046
H   4.9067482582 -2.8433917371  4.1944328126
H   6.1154242174 -1.5260918404  4.5482328078
H   4.5336272141 -1.3439429684  5.1228537544
H   6.4628954091 -2.1171726353  2.0354351188
H   4.9489340629 -2.7990085944  1.4499353080
H   5.5495602458 -1.2441262335  0.6959831546
H  -6.6967755618  0.3975345882 -4.9307145959
H  -6.2087829403  1.6077046718 -3.6148644384
H  -7.6278879704  1.9229364948 -4.7692464047
H  -3.8238362601  1.2463099599 -4.3506935410
H  -3.4204226080  0.6408635980 -5.9639775729
H  -4.6951149545 -0.2684500653 -5.0629197855
H  -6.5355894550 -7.2467601086  1.6901642249
H  -7.6233396646 -7.6220807373  0.3340769237
H  -5.8541863803 -7.9571835735  0.0563903883
H  -4.2718960200 -4.3955158164  0.1263093447
H  -4.8091686061 -5.4506162642  1.5279444336
H  -4.0197634093 -6.1840508975  0.1897049735
H  -2.7642819315  3.9954298827  1.7530688573
H  -3.8495205337  3.2594271805  0.3497831865
H  -4.2712314399  4.8819552322  1.1703187023
H  -5.6369370988  3.8812473847  4.5109939095
H  -4.0734423799  4.6835699627  4.0555596975
H  -5.7264997330  5.2075897343  3.2843735029
H   8.2460935382  0.9676857538  7.1223164890
H   7.0282725171 -0.2694379450  7.6651997751
H   6.8999621459  0.4603002108  6.1091125474
H   6.9605952786  3.4170609225  5.8086926880
H   8.1050279908  3.0916977939  7.2534894648
H   6.8473827901  4.3744070241  7.3985396511
H  -0.6144955081 -6.7809105743 -1.8428555970
H  -1.5063217057 -7.2474053911 -3.2817987090
H  -0.1971164929 -5.8775119469 -3.4811786884
H  -1.6627957944 -4.3086881492 -4.8756912521
H  -2.3990975861 -5.8898837285 -4.9254015233
H  -3.4904760334 -4.4693713211 -4.6258279601
C   0.3725620680  0.8355074404 -1.1029012571
C   1.5090156214  0.9307063564 -0.3306174535
C   1.4726831660  0.8996171040  1.0288811913
C   0.2680178569  0.6081770368  1.7424308267
C  -0.9456188803  0.6174186636  0.9630204252
C  -0.8660265287  0.7841568306 -0.4407888592
C  -0.6431717018 -0.2597170626  3.7079915728
C  -0.6692827813 -0.6045577616  5.1529557134
C  -1.6748368014 -1.5558344868  5.5380133405
C  -1.8020421464 -2.0263064882  6.8283651471
C  -0.9564512888 -1.3748186639  7.8848241877
C   0.0143128157 -0.4357399678  7.3351083208
C   0.8205927811  0.3714269251  8.2784124116
C   0.6999456957  0.1270931992  9.6133235698
C  -0.2936047035 -0.7896746748  10.1242139271
C  -1.0635987620 -1.5632949208  9.3121122779
C  -8.6103756465 -7.9912945767  5.3427583758
C  -9.1638459890 -5.5209659190  4.8307597051
C  -5.2132514512 -1.4916510647  5.7350581316
C  -6.8792681884 -0.3061512473  3.9985616871
C   0.6718704300  4.2006947178  5.0518066984
C   2.5736388599  2.1933041976  4.8711186817
C   3.9209809202  6.2292016079  2.2496651401
C   2.9483554457  8.8651968973  2.8138690794
C  -7.1637170109 -3.1090265271 -3.1378319915
C  -9.2060249410 -2.4948249416 -1.6700786732
C  -1.0188570040  7.4882714770 -7.6930410288
C   1.0218537954  5.6272458301 -7.1792810238
C  -3.4620404046  5.9739328305 -3.1032133549
C  -5.2820322878  6.1099536624 -5.2098167906
C   4.7787928063 -5.3429987343 -6.6854694190
C   3.3065204627 -3.0355292177 -6.1314614444
C   5.3125065349  0.4194405245 -4.2601242997
C   4.1948464918  2.8521516072 -3.8010922132
C   1.7656649116 -2.7670392247 -0.6378937595
C  -0.1620429177 -3.7906389251  0.9054084320
C  -5.7213345656 -6.1306938633 -7.3244989612
C  -6.6412558736 -3.5868571341 -6.9764377777
C  -9.3831349078  2.5871191104  0.6780938874
C  -8.0329752022  4.2525365429 -0.7940423373
C  -1.6766815591 -8.5812614966  3.8254841695
C  -3.5142930601 -7.0325497513  5.3156789588
C   1.3245381632 -5.2710064719  7.1808251972
C   1.6400701853 -3.8223169989  4.8641198207
C  -10.4219354828 -7.6789984811 -2.9332607687
C  -10.0514287744 -9.7590775895 -4.7419013841
C   5.0747600789 -1.7741091818  4.3080616935
C   5.5179659238 -1.8669044175  1.5727064908
C  -6.6337120272  1.4416477135 -4.6486327221
C  -4.2762733420  0.7679730189 -5.2495547475
C  -6.5857176749 -7.3638291671  0.5674552310
C  -4.7464077935 -5.3399081218  0.3957057664
C  -3.8355349612  3.8748071131  1.2680109637
C  -5.0880684811  4.3785531415  3.6652415744
C   7.1549557036  0.7019263934  7.1369089159
C   7.0685056824  3.3864337380  6.9162853612
C  -0.9612097239 -6.4123976809 -2.8528525962
C  -2.4940297983 -4.9077613975 -4.4207406800
N   0.3367183783  0.3687350591  3.1458918414
N   0.1877051853 -0.0566901258  6.0365443008
O   0.3605193626  1.0556270830 -2.4466713338
O  -8.7537928768 -6.3480174192  7.3919939197
O  -7.8691691413 -1.7842471388  5.7397486706
O   2.2981345074  3.6074616925  7.0417595652
O   5.5389018190  8.4055269348  2.7892659932
O  -9.5018211949 -3.8380817185 -4.0222651449
O   1.2110169704  8.3092632893 -6.6061790834
O  -3.1267918076  7.6517345878 -5.1197610003
O   4.4739190176 -3.6559503678 -8.6785072291
O   2.7452620028  0.8055810437 -3.5456438812
O   2.3618622685 -4.3636751953  1.4272341041
O  -4.6763056911 -4.0132031657 -8.6024185599
O  -8.0689646902  1.7699411174 -1.5676089385
O  -3.8554646845 -7.7339349465  2.5669061247
O   0.2077081980 -6.2037159627  4.8944603609
O  -8.1376368191 -9.2288120579 -2.7955831321
O   5.0336541581  0.5097992994  2.8218510676
O  -4.9124698677  3.2882624238 -5.4081939598
O  -7.5403700168 -4.8332699511  0.4316527909
O  -3.6813110885  2.1527720924  3.2079975152
O   6.6205112542  2.1739895066  9.1799211528
O  -1.5645218572 -3.9413711027 -2.0841643599
S  -9.5342677275 -6.7282161016  6.1680958349
S  -6.7012433791 -1.8016283436  4.8221791867
S   2.3349784463  3.7950253833  5.5710671916
S   4.2434428935  7.7643703671  3.3022702436
S  -8.8573607975 -2.6063918083 -3.4251712353
S   0.8094937559  7.4385674682 -7.7833959878
S  -3.5255279712  6.2084053490 -4.9243384645
S   4.7695859802 -3.5936439946 -7.1463641480
S   3.7846386878  1.3172361196 -4.5655467105
S   1.4488253107 -4.2610300271  0.2558385529
S  -5.0856241274 -4.4194228205 -7.2131424921
S  -7.8677341119  2.5770345656 -0.2849806627
S  -2.9142662960 -7.1696520302  3.6368126524
S   1.5392257942 -5.6412695942  5.4271890360
S  -8.9185227213 -8.5045266751 -3.8311443667
S   4.4507346318 -0.9479150343  2.7576111800
S  -5.4015187146  1.9643435257 -5.8758832524
S  -6.4833183010 -5.7086155478 -0.2138720830
S  -4.7438260466  2.9651539951  2.5308752092
S   6.1120647269  2.0742283184  7.7929681852
S  -2.2722001673 -5.1769283405 -2.6013903874
